WARNING: for repeatability, setting FPU to use double precision
============================[ Problem Statistics ]=============================
|                                                                             |
|  Number of variables:           100                                         |
|  Number of clauses:             449                                         |
|  Parse time:                   0.00 s                                       |
|  Eliminated clauses:           0.00 Mb                                      |
|  Simplification time:          0.00 s                                       |
|                                                                             |
============================[ Search Statistics ]==============================
| Conflicts |          ORIGINAL         |          LEARNT          | Progress |
|           |    Vars  Clauses Literals |    Limit  Clauses Lit/Cl |          |
===============================================================================
|       100 |      95      440     1340 |      161      100      7 |  0.010 % |
===============================================================================
restarts              : 3
conflicts             : 248            (72557 /sec)
decisions             : 328            (0.00 % random) (95963 /sec)
propagations          : 5704           (1668812 /sec)
conflict literals     : 1647           (16.99 % deleted)
Memory used           : 13.00 MB
CPU time              : 0.003418 s

SATISFIABLE
